NAME: pr76
COMMENT: Quick (5min) local search tour for pr76 (128931.87793123037)
TYPE: TOUR
DIMENSION: 76
TOUR_SECTION: 1 75 76 2 3 4 5 6 7 8 9 17 18 37 36 35 38 39 61 58 57 62 64 63 73 72 71 65 66 51 56 55 59 60 41 40 34 32 33 29 30 31 19 20 16 15 74 14 13 12 11 10 26 27 52 49 28 43 42 54 53 50 70 67 68 69 47 48 44 45 46 24 25 21 22 23 -1
EOF